
%FILE DATA:	Soccer Computational Problem for MiniZinc Models	%
%AUTHOR:	Jack Wall	%
%CONTACT:  	116397063@umail.ucc.ie			%
%LAST UPDATE:	03/19/2020, 19:31:31						%
%DESCRIPTION: 	238 games played with 34 games left				%


n=17; %number of teams

%Games to play
games=[|10,2|10,5|2,6|9,2|10,6|17,15|7,1|6,13|5,14|14,16|9,14|15,17|12,5|4,9|2,11|17,1|15,2|16,7|3,1|14,15|1,5|15,1|16,1|17,4|13,9|8,11|9,5|6,11|15,4|11,6|14,4|13,14|7,6|5,15|];

%Initial points
iPoints=[34,31,39,42,29,36,35,40,56,42,31,39,54,34,33,36,30];

%POSITION CONSTRAINTS
% [|teamID, operator, position|...]
% operators index:
%  1 for =  operator
%  2 for >  operator
%  3 for >= operator
%  4 for <  operator
%  5 for <= operator
positionConstraints=[|13,3,1|9,1,2|4,3,3|];